unknown
(model
; cardinality of BoundSet is 2
(declare-sort BoundSet 0)
; rep: @uc_BoundSet_0
; rep: @uc_BoundSet_1
(declare-sort UnboundSet 0)
(define-fun IsDoingTrick ((BOUND_VARIABLE_405 BoundSet)) Bool true)
(define-fun IsOnBike ((BOUND_VARIABLE_405 BoundSet)) Bool true)
(define-fun IsRidingBike ((BOUND_VARIABLE_405 BoundSet)) Bool false)
)
